NAME          COPTPROB
OBJSENSE
  MIN
ROWS
 N  __OBJ___
 L  C4      
 L  C9      
 L  C33     
 L  C42     
 L  C44     
 L  C47     
 L  C55     
 L  C92     
 L  C107    
 L  C111    
 L  C138    
 L  C142    
 L  C144    
 L  C148    
 L  C152    
 L  C166    
 L  C181    
 L  C183    
COLUMNS
    MARKER    'MARKER'                 'INTORG'
    x72       __OBJ___  63
    x72       C138      -1
    x72       C181      -1
    x218      __OBJ___  51
    x218      C55       -1
    x218      C166      -1
    x220      __OBJ___  48
    x220      C47       -1
    x220      C55       -1
    x231      __OBJ___  9
    x231      C33       -1
    x231      C152      -1
    x418      __OBJ___  51
    x418      C44       -1
    x418      C183      -1
    x561      __OBJ___  47
    x561      C142      -1
    x561      C148      -1
    x661      __OBJ___  1
    x661      C92       -1
    x661      C152      -1
    x723      __OBJ___  16
    x723      C55       -1
    x723      C92       -1
    x772      __OBJ___  85
    x772      C47       -1
    x772      C107      -1
    x1194     __OBJ___  11
    x1194     C9        -1
    x1194     C33       -1
    x1259     __OBJ___  2
    x1259     C144      -1
    x1270     __OBJ___  43
    x1270     C9        -1
    x1270     C166      -1
    x1515     __OBJ___  37
    x1515     C44       -1
    x1515     C181      -1
    x1549     __OBJ___  7
    x1549     C111      -1
    x1549     C142      -1
    x2054     __OBJ___  52
    x2054     C42       -1
    x2054     C111      -1
    x2069     __OBJ___  53
    x2069     C42       -1
    x2069     C144      -1
    x2254     __OBJ___  143
    x2254     C4        -1
    x2254     C138      -1
    x2359     __OBJ___  40
    x2359     C44       -1
    x2359     C111      -1
    x2472     __OBJ___  86
    x2472     C148      -1
    x2472     C166      -1
    x2747     __OBJ___  99
    x2747     C107      -1
    x2747     C183      -1
    x2956     __OBJ___  21
    x2956     C183      -1
    x3105     __OBJ___  82
    x3105     C4        -1
    x3105     C144      -1
    MARKER    'MARKER'                 'INTEND'
RHS
    RHS       __OBJ___  -4188
    RHS       C4        -1
    RHS       C9        -1
    RHS       C33       -1
    RHS       C42       -1
    RHS       C44       -1
    RHS       C47       -1
    RHS       C55       -1
    RHS       C92       -1
    RHS       C107      -1
    RHS       C111      -1
    RHS       C138      -1
    RHS       C142      -1
    RHS       C144      -1
    RHS       C148      -1
    RHS       C152      -1
    RHS       C166      -1
    RHS       C181      -1
    RHS       C183      -1
BOUNDS
 UP BOUND     x72       1
 UP BOUND     x218      1
 UP BOUND     x220      1
 UP BOUND     x231      1
 UP BOUND     x418      1
 UP BOUND     x561      1
 UP BOUND     x661      1
 UP BOUND     x723      1
 UP BOUND     x772      1
 UP BOUND     x1194     1
 UP BOUND     x1259     1
 UP BOUND     x1270     1
 UP BOUND     x1515     1
 UP BOUND     x1549     1
 UP BOUND     x2054     1
 UP BOUND     x2069     1
 UP BOUND     x2254     1
 UP BOUND     x2359     1
 UP BOUND     x2472     1
 UP BOUND     x2747     1
 UP BOUND     x2956     1
 UP BOUND     x3105     1
ENDATA
